c ind 1 2 3 4 5 6 7 8 9 10 11 12 13 14 15 16 17 18 19 20 21 22 23 24 25 26 27 28 29 30 31 32 33 34 35 36 37 38 39 40 41 42 43 44 45 46 47 48 49 50 51 52 53 54 55 56 57 58 59 60 0
p cnf 991 2107              
-47 -46 -742 0
742 -746 0
-46 743 0
-47 743 0
46 47 -743 0
-743 -48 -744 0
744 -746 0
48 743 -745 0
745 -746 0
746 -775 0
-50 -49 -747 0
747 -751 0
-49 748 0
-50 748 0
49 50 -748 0
-748 -51 -749 0
749 -751 0
51 748 -750 0
750 -751 0
751 -775 0
-53 -52 -752 0
752 -756 0
-52 753 0
-53 753 0
52 53 -753 0
-753 -54 -754 0
754 -756 0
54 753 -755 0
755 -756 0
756 -775 0
-4 65 0
-7 65 0
4 7 -65 0
-55 65 -757 0
757 -760 0
-5 66 0
-8 66 0
5 8 -66 0
-56 66 -758 0
758 -760 0
-6 67 0
-9 67 0
6 9 -67 0
-57 67 -759 0
759 -760 0
760 -775 0
-56 -55 -761 0
761 -765 0
-55 762 0
-56 762 0
55 56 -762 0
-762 -57 -763 0
763 -765 0
57 762 -764 0
764 -765 0
765 -775 0
-1 88 0
-65 88 0
1 65 -88 0
-58 88 -766 0
766 -769 0
-2 89 0
-66 89 0
2 66 -89 0
-59 89 -767 0
767 -769 0
-3 90 0
-67 90 0
3 67 -90 0
-60 90 -768 0
768 -769 0
769 -775 0
-59 -58 -770 0
770 -774 0
-58 771 0
-59 771 0
58 59 -771 0
-771 -60 -772 0
772 -774 0
60 771 -773 0
773 -774 0
774 -775 0
775 990 0
19 -776 0
46 -776 0
-19 -46 776 0
-776 803 0
28 -785 0
47 -785 0
-28 -47 785 0
-785 803 0
37 -794 0
48 -794 0
-37 -48 794 0
-794 803 0
776 785 794 -803 0
-55 -803 812 0
-812 821 0
22 -779 0
46 -779 0
-22 -46 779 0
-779 806 0
31 -788 0
47 -788 0
-31 -47 788 0
-788 806 0
40 -797 0
48 -797 0
-40 -48 797 0
-797 806 0
779 788 797 -806 0
-56 -806 815 0
-815 821 0
25 -782 0
46 -782 0
-25 -46 782 0
-782 809 0
34 -791 0
47 -791 0
-34 -47 791 0
-791 809 0
43 -800 0
48 -800 0
-43 -48 800 0
-800 809 0
782 791 800 -809 0
-57 -809 818 0
-818 821 0
-821 824 0
20 -777 0
46 -777 0
-20 -46 777 0
-777 804 0
29 -786 0
47 -786 0
-29 -47 786 0
-786 804 0
38 -795 0
48 -795 0
-38 -48 795 0
-795 804 0
777 786 795 -804 0
-55 -804 813 0
-813 822 0
23 -780 0
46 -780 0
-23 -46 780 0
-780 807 0
32 -789 0
47 -789 0
-32 -47 789 0
-789 807 0
41 -798 0
48 -798 0
-41 -48 798 0
-798 807 0
780 789 798 -807 0
-56 -807 816 0
-816 822 0
26 -783 0
46 -783 0
-26 -46 783 0
-783 810 0
35 -792 0
47 -792 0
-35 -47 792 0
-792 810 0
44 -801 0
48 -801 0
-44 -48 801 0
-801 810 0
783 792 801 -810 0
-57 -810 819 0
-819 822 0
-822 824 0
21 -778 0
46 -778 0
-21 -46 778 0
-778 805 0
30 -787 0
47 -787 0
-30 -47 787 0
-787 805 0
39 -796 0
48 -796 0
-39 -48 796 0
-796 805 0
778 787 796 -805 0
-55 -805 814 0
-814 823 0
24 -781 0
46 -781 0
-24 -46 781 0
-781 808 0
33 -790 0
47 -790 0
-33 -47 790 0
-790 808 0
42 -799 0
48 -799 0
-42 -48 799 0
-799 808 0
781 790 799 -808 0
-56 -808 817 0
-817 823 0
27 -784 0
46 -784 0
-27 -46 784 0
-784 811 0
36 -793 0
47 -793 0
-36 -47 793 0
-793 811 0
45 -802 0
48 -802 0
-45 -48 802 0
-802 811 0
784 793 802 -811 0
-57 -811 820 0
-820 823 0
-823 824 0
-824 -900 0
19 -825 0
49 -825 0
-19 -49 825 0
-825 852 0
28 -834 0
50 -834 0
-28 -50 834 0
-834 852 0
37 -843 0
51 -843 0
-37 -51 843 0
-843 852 0
825 834 843 -852 0
-803 870 0
55 -861 0
58 -861 0
-55 -58 861 0
-861 870 0
803 861 -870 0
-852 870 -879 0
879 -888 0
20 -826 0
49 -826 0
-20 -49 826 0
-826 853 0
29 -835 0
50 -835 0
-29 -50 835 0
-835 853 0
38 -844 0
51 -844 0
-38 -51 844 0
-844 853 0
826 835 844 -853 0
-804 871 0
55 -862 0
59 -862 0
-55 -59 862 0
-862 871 0
804 862 -871 0
-853 871 -880 0
880 -888 0
21 -827 0
49 -827 0
-21 -49 827 0
-827 854 0
30 -836 0
50 -836 0
-30 -50 836 0
-836 854 0
39 -845 0
51 -845 0
-39 -51 845 0
-845 854 0
827 836 845 -854 0
-805 872 0
55 -863 0
60 -863 0
-55 -60 863 0
-863 872 0
805 863 -872 0
-854 872 -881 0
881 -888 0
22 -828 0
49 -828 0
-22 -49 828 0
-828 855 0
31 -837 0
50 -837 0
-31 -50 837 0
-837 855 0
40 -846 0
51 -846 0
-40 -51 846 0
-846 855 0
828 837 846 -855 0
-806 873 0
56 -864 0
58 -864 0
-56 -58 864 0
-864 873 0
806 864 -873 0
-855 873 -882 0
882 -888 0
23 -829 0
49 -829 0
-23 -49 829 0
-829 856 0
32 -838 0
50 -838 0
-32 -50 838 0
-838 856 0
41 -847 0
51 -847 0
-41 -51 847 0
-847 856 0
829 838 847 -856 0
-807 874 0
56 -865 0
59 -865 0
-56 -59 865 0
-865 874 0
807 865 -874 0
-856 874 -883 0
883 -888 0
24 -830 0
49 -830 0
-24 -49 830 0
-830 857 0
33 -839 0
50 -839 0
-33 -50 839 0
-839 857 0
42 -848 0
51 -848 0
-42 -51 848 0
-848 857 0
830 839 848 -857 0
-808 875 0
56 -866 0
60 -866 0
-56 -60 866 0
-866 875 0
808 866 -875 0
-857 875 -884 0
884 -888 0
25 -831 0
49 -831 0
-25 -49 831 0
-831 858 0
34 -840 0
50 -840 0
-34 -50 840 0
-840 858 0
43 -849 0
51 -849 0
-43 -51 849 0
-849 858 0
831 840 849 -858 0
-809 876 0
57 -867 0
58 -867 0
-57 -58 867 0
-867 876 0
809 867 -876 0
-858 876 -885 0
885 -888 0
26 -832 0
49 -832 0
-26 -49 832 0
-832 859 0
35 -841 0
50 -841 0
-35 -50 841 0
-841 859 0
44 -850 0
51 -850 0
-44 -51 850 0
-850 859 0
832 841 850 -859 0
-810 877 0
57 -868 0
59 -868 0
-57 -59 868 0
-868 877 0
810 868 -877 0
-859 877 -886 0
886 -888 0
27 -833 0
49 -833 0
-27 -49 833 0
-833 860 0
36 -842 0
50 -842 0
-36 -50 842 0
-842 860 0
45 -851 0
51 -851 0
-45 -51 851 0
-851 860 0
833 842 851 -860 0
-811 878 0
57 -869 0
60 -869 0
-57 -60 869 0
-869 878 0
811 869 -878 0
-860 878 -887 0
887 -888 0
888 -899 0
-870 852 -889 0
889 -898 0
-871 853 -890 0
890 -898 0
-872 854 -891 0
891 -898 0
-873 855 -892 0
892 -898 0
-874 856 -893 0
893 -898 0
-875 857 -894 0
894 -898 0
-876 858 -895 0
895 -898 0
-877 859 -896 0
896 -898 0
-878 860 -897 0
897 -898 0
898 -899 0
899 -900 0
900 -967 0
19 -901 0
52 -901 0
-19 -52 901 0
-901 928 0
28 -910 0
53 -910 0
-28 -53 910 0
-910 928 0
37 -919 0
54 -919 0
-37 -54 919 0
-919 928 0
901 910 919 -928 0
-861 -937 0
852 -937 0
861 -852 937 0
-928 937 -946 0
946 -955 0
20 -902 0
52 -902 0
-20 -52 902 0
-902 929 0
29 -911 0
53 -911 0
-29 -53 911 0
-911 929 0
38 -920 0
54 -920 0
-38 -54 920 0
-920 929 0
902 911 920 -929 0
-862 -938 0
853 -938 0
862 -853 938 0
-929 938 -947 0
947 -955 0
21 -903 0
52 -903 0
-21 -52 903 0
-903 930 0
30 -912 0
53 -912 0
-30 -53 912 0
-912 930 0
39 -921 0
54 -921 0
-39 -54 921 0
-921 930 0
903 912 921 -930 0
-863 -939 0
854 -939 0
863 -854 939 0
-930 939 -948 0
948 -955 0
22 -904 0
52 -904 0
-22 -52 904 0
-904 931 0
31 -913 0
53 -913 0
-31 -53 913 0
-913 931 0
40 -922 0
54 -922 0
-40 -54 922 0
-922 931 0
904 913 922 -931 0
-864 -940 0
855 -940 0
864 -855 940 0
-931 940 -949 0
949 -955 0
23 -905 0
52 -905 0
-23 -52 905 0
-905 932 0
32 -914 0
53 -914 0
-32 -53 914 0
-914 932 0
41 -923 0
54 -923 0
-41 -54 923 0
-923 932 0
905 914 923 -932 0
-865 -941 0
856 -941 0
865 -856 941 0
-932 941 -950 0
950 -955 0
24 -906 0
52 -906 0
-24 -52 906 0
-906 933 0
33 -915 0
53 -915 0
-33 -53 915 0
-915 933 0
42 -924 0
54 -924 0
-42 -54 924 0
-924 933 0
906 915 924 -933 0
-866 -942 0
857 -942 0
866 -857 942 0
-933 942 -951 0
951 -955 0
25 -907 0
52 -907 0
-25 -52 907 0
-907 934 0
34 -916 0
53 -916 0
-34 -53 916 0
-916 934 0
43 -925 0
54 -925 0
-43 -54 925 0
-925 934 0
907 916 925 -934 0
-867 -943 0
858 -943 0
867 -858 943 0
-934 943 -952 0
952 -955 0
26 -908 0
52 -908 0
-26 -52 908 0
-908 935 0
35 -917 0
53 -917 0
-35 -53 917 0
-917 935 0
44 -926 0
54 -926 0
-44 -54 926 0
-926 935 0
908 917 926 -935 0
-868 -944 0
859 -944 0
868 -859 944 0
-935 944 -953 0
953 -955 0
27 -909 0
52 -909 0
-27 -52 909 0
-909 936 0
36 -918 0
53 -918 0
-36 -53 918 0
-918 936 0
45 -927 0
54 -927 0
-45 -54 927 0
-927 936 0
909 918 927 -936 0
-869 -945 0
860 -945 0
869 -860 945 0
-936 945 -954 0
954 -955 0
955 -966 0
-937 928 -956 0
956 -965 0
-938 929 -957 0
957 -965 0
-939 930 -958 0
958 -965 0
-940 931 -959 0
959 -965 0
-941 932 -960 0
960 -965 0
-942 933 -961 0
961 -965 0
-943 934 -962 0
962 -965 0
-944 935 -963 0
963 -965 0
-945 936 -964 0
964 -965 0
965 -966 0
966 -967 0
967 989 0
803 968 0
-928 968 0
804 969 0
-929 969 0
805 970 0
-930 970 0
806 971 0
-931 971 0
807 972 0
-932 972 0
808 973 0
-933 973 0
809 974 0
-934 974 0
810 975 0
-935 975 0
811 976 0
-936 976 0
-968 -969 -970 -971 -972 -973 -974 -975 -976 977 0
928 978 0
-803 978 0
929 979 0
-804 979 0
930 980 0
-805 980 0
931 981 0
-806 981 0
932 982 0
-807 982 0
933 983 0
-808 983 0
934 984 0
-809 984 0
935 985 0
-810 985 0
936 986 0
-811 986 0
-978 -979 -980 -981 -982 -983 -984 -985 -986 987 0
-977 -987 988 0
-988 989 0
-989 990 0
-19 552 0
-20 552 0
-21 552 0
-22 552 0
-23 552 0
-24 552 0
-25 552 0
-26 552 0
-27 552 0
-1 -65 68 0
-68 71 0
-2 -66 69 0
-69 71 0
-3 -67 70 0
-70 71 0
-4 -7 61 0
-61 64 0
-5 -8 62 0
-62 64 0
-6 -9 63 0
-63 64 0
-10 65 -72 0
72 -75 0
-11 66 -73 0
73 -75 0
-12 67 -74 0
74 -75 0
75 -84 0
-13 65 -76 0
76 -79 0
-14 66 -77 0
77 -79 0
-15 67 -78 0
78 -79 0
79 -84 0
-16 65 -80 0
80 -83 0
-17 66 -81 0
81 -83 0
-18 67 -82 0
82 -83 0
83 -84 0
10 -91 0
88 -91 0
-19 91 -100 0
100 -109 0
10 -92 0
89 -92 0
-20 92 -101 0
101 -109 0
10 -93 0
90 -93 0
-21 93 -102 0
102 -109 0
11 -94 0
88 -94 0
-22 94 -103 0
103 -109 0
11 -95 0
89 -95 0
-23 95 -104 0
104 -109 0
11 -96 0
90 -96 0
-24 96 -105 0
105 -109 0
12 -97 0
88 -97 0
-25 97 -106 0
106 -109 0
12 -98 0
89 -98 0
-26 98 -107 0
107 -109 0
12 -99 0
90 -99 0
-27 99 -108 0
108 -109 0
109 -132 0
19 20 21 -110 0
110 -115 0
-19 88 -111 0
111 -114 0
-20 89 -112 0
112 -114 0
-21 90 -113 0
113 -114 0
114 -115 0
-10 115 -116 0
116 -131 0
22 23 24 -117 0
117 -122 0
-22 88 -118 0
118 -121 0
-23 89 -119 0
119 -121 0
-24 90 -120 0
120 -121 0
121 -122 0
-11 122 -123 0
123 -131 0
25 26 27 -124 0
124 -129 0
-25 88 -125 0
125 -128 0
-26 89 -126 0
126 -128 0
-27 90 -127 0
127 -128 0
128 -129 0
-12 129 -130 0
130 -131 0
131 -132 0
132 -149 0
-19 10 -133 0
133 -136 0
-22 11 -134 0
134 -136 0
-25 12 -135 0
135 -136 0
-88 136 -137 0
137 -148 0
-20 10 -138 0
138 -141 0
-23 11 -139 0
139 -141 0
-26 12 -140 0
140 -141 0
-89 141 -142 0
142 -148 0
-21 10 -143 0
143 -146 0
-24 11 -144 0
144 -146 0
-27 12 -145 0
145 -146 0
-90 146 -147 0
147 -148 0
148 -149 0
149 -268 0
13 -150 0
88 -150 0
-28 150 -159 0
159 -168 0
13 -151 0
89 -151 0
-29 151 -160 0
160 -168 0
13 -152 0
90 -152 0
-30 152 -161 0
161 -168 0
14 -153 0
88 -153 0
-31 153 -162 0
162 -168 0
14 -154 0
89 -154 0
-32 154 -163 0
163 -168 0
14 -155 0
90 -155 0
-33 155 -164 0
164 -168 0
15 -156 0
88 -156 0
-34 156 -165 0
165 -168 0
15 -157 0
89 -157 0
-35 157 -166 0
166 -168 0
15 -158 0
90 -158 0
-36 158 -167 0
167 -168 0
168 -191 0
28 29 30 -169 0
169 -174 0
-28 88 -170 0
170 -173 0
-29 89 -171 0
171 -173 0
-30 90 -172 0
172 -173 0
173 -174 0
-13 174 -175 0
175 -190 0
31 32 33 -176 0
176 -181 0
-31 88 -177 0
177 -180 0
-32 89 -178 0
178 -180 0
-33 90 -179 0
179 -180 0
180 -181 0
-14 181 -182 0
182 -190 0
34 35 36 -183 0
183 -188 0
-34 88 -184 0
184 -187 0
-35 89 -185 0
185 -187 0
-36 90 -186 0
186 -187 0
187 -188 0
-15 188 -189 0
189 -190 0
190 -191 0
191 -208 0
-28 13 -192 0
192 -195 0
-31 14 -193 0
193 -195 0
-34 15 -194 0
194 -195 0
-88 195 -196 0
196 -207 0
-29 13 -197 0
197 -200 0
-32 14 -198 0
198 -200 0
-35 15 -199 0
199 -200 0
-89 200 -201 0
201 -207 0
-30 13 -202 0
202 -205 0
-33 14 -203 0
203 -205 0
-36 15 -204 0
204 -205 0
-90 205 -206 0
206 -207 0
207 -208 0
208 -268 0
16 -209 0
88 -209 0
-37 209 -218 0
218 -227 0
16 -210 0
89 -210 0
-38 210 -219 0
219 -227 0
16 -211 0
90 -211 0
-39 211 -220 0
220 -227 0
17 -212 0
88 -212 0
-40 212 -221 0
221 -227 0
17 -213 0
89 -213 0
-41 213 -222 0
222 -227 0
17 -214 0
90 -214 0
-42 214 -223 0
223 -227 0
18 -215 0
88 -215 0
-43 215 -224 0
224 -227 0
18 -216 0
89 -216 0
-44 216 -225 0
225 -227 0
18 -217 0
90 -217 0
-45 217 -226 0
226 -227 0
227 -250 0
37 38 39 -228 0
228 -233 0
-37 88 -229 0
229 -232 0
-38 89 -230 0
230 -232 0
-39 90 -231 0
231 -232 0
232 -233 0
-16 233 -234 0
234 -249 0
40 41 42 -235 0
235 -240 0
-40 88 -236 0
236 -239 0
-41 89 -237 0
237 -239 0
-42 90 -238 0
238 -239 0
239 -240 0
-17 240 -241 0
241 -249 0
43 44 45 -242 0
242 -247 0
-43 88 -243 0
243 -246 0
-44 89 -244 0
244 -246 0
-45 90 -245 0
245 -246 0
246 -247 0
-18 247 -248 0
248 -249 0
249 -250 0
250 -267 0
-37 16 -251 0
251 -254 0
-40 17 -252 0
252 -254 0
-43 18 -253 0
253 -254 0
-88 254 -255 0
255 -266 0
-38 16 -256 0
256 -259 0
-41 17 -257 0
257 -259 0
-44 18 -258 0
258 -259 0
-89 259 -260 0
260 -266 0
-39 16 -261 0
261 -264 0
-42 17 -262 0
262 -264 0
-45 18 -263 0
263 -264 0
-90 264 -265 0
265 -266 0
266 -267 0
267 -268 0
-19 293 0
-20 -22 274 0
-274 293 0
-21 -25 277 0
-277 293 0
-293 329 0
-20 302 0
-19 -20 272 0
-272 294 0
-20 -23 275 0
-275 294 0
-21 -26 278 0
-278 294 0
-294 302 0
-22 304 0
-19 -22 280 0
-280 296 0
-22 -23 282 0
-282 296 0
-24 -25 284 0
-284 296 0
-296 304 0
-302 -304 310 0
-310 329 0
-21 303 0
-19 -21 273 0
-273 295 0
-20 -24 276 0
-276 295 0
-21 -27 279 0
-279 295 0
-295 303 0
-25 306 0
-19 -25 287 0
-287 299 0
-22 -26 289 0
-289 299 0
-25 -27 291 0
-291 299 0
-299 306 0
-303 -306 313 0
-313 329 0
-329 -65 -344 0
344 -347 0
-23 297 0
-274 297 0
-24 -26 285 0
-285 297 0
-297 333 0
-310 333 0
-24 305 0
-21 -22 281 0
-281 298 0
-23 -24 283 0
-283 298 0
-24 -27 286 0
-286 298 0
-298 305 0
-26 307 0
-20 -25 288 0
-288 300 0
-23 -26 290 0
-290 300 0
-26 -27 292 0
-292 300 0
-300 307 0
-305 -307 321 0
-321 333 0
-333 -66 -345 0
345 -347 0
-27 301 0
-277 301 0
-285 301 0
-301 337 0
-313 337 0
-321 337 0
-337 -67 -346 0
346 -347 0
347 -364 0
-20 -19 -348 0
348 -351 0
-19 349 0
-20 349 0
-349 -21 -350 0
350 -351 0
-4 351 -352 0
352 -363 0
-23 -22 -353 0
353 -356 0
-22 354 0
-23 354 0
-354 -24 -355 0
355 -356 0
-5 356 -357 0
357 -363 0
-26 -25 -358 0
358 -361 0
-25 359 0
-26 359 0
-359 -27 -360 0
360 -361 0
-6 361 -362 0
362 -363 0
363 -364 0
364 -551 0
-28 386 0
-29 -31 367 0
-367 386 0
-30 -34 370 0
-370 386 0
-386 422 0
-29 395 0
-28 -29 365 0
-365 387 0
-29 -32 368 0
-368 387 0
-30 -35 371 0
-371 387 0
-387 395 0
-31 397 0
-28 -31 373 0
-373 389 0
-31 -32 375 0
-375 389 0
-33 -34 377 0
-377 389 0
-389 397 0
-395 -397 403 0
-403 422 0
-30 396 0
-28 -30 366 0
-366 388 0
-29 -33 369 0
-369 388 0
-30 -36 372 0
-372 388 0
-388 396 0
-34 399 0
-28 -34 380 0
-380 392 0
-31 -35 382 0
-382 392 0
-34 -36 384 0
-384 392 0
-392 399 0
-396 -399 406 0
-406 422 0
-422 -65 -437 0
437 -440 0
-32 390 0
-367 390 0
-33 -35 378 0
-378 390 0
-390 426 0
-403 426 0
-33 398 0
-30 -31 374 0
-374 391 0
-32 -33 376 0
-376 391 0
-33 -36 379 0
-379 391 0
-391 398 0
-35 400 0
-29 -34 381 0
-381 393 0
-32 -35 383 0
-383 393 0
-35 -36 385 0
-385 393 0
-393 400 0
-398 -400 414 0
-414 426 0
-426 -66 -438 0
438 -440 0
-36 394 0
-370 394 0
-378 394 0
-394 430 0
-406 430 0
-414 430 0
-430 -67 -439 0
439 -440 0
440 -457 0
-29 -28 -441 0
441 -444 0
-28 442 0
-29 442 0
-442 -30 -443 0
443 -444 0
-4 444 -445 0
445 -456 0
-32 -31 -446 0
446 -449 0
-31 447 0
-32 447 0
-447 -33 -448 0
448 -449 0
-5 449 -450 0
450 -456 0
-35 -34 -451 0
451 -454 0
-34 452 0
-35 452 0
-452 -36 -453 0
453 -454 0
-6 454 -455 0
455 -456 0
456 -457 0
457 -551 0
-37 479 0
-38 -40 460 0
-460 479 0
-39 -43 463 0
-463 479 0
-479 515 0
-38 488 0
-37 -38 458 0
-458 480 0
-38 -41 461 0
-461 480 0
-39 -44 464 0
-464 480 0
-480 488 0
-40 490 0
-37 -40 466 0
-466 482 0
-40 -41 468 0
-468 482 0
-42 -43 470 0
-470 482 0
-482 490 0
-488 -490 496 0
-496 515 0
-39 489 0
-37 -39 459 0
-459 481 0
-38 -42 462 0
-462 481 0
-39 -45 465 0
-465 481 0
-481 489 0
-43 492 0
-37 -43 473 0
-473 485 0
-40 -44 475 0
-475 485 0
-43 -45 477 0
-477 485 0
-485 492 0
-489 -492 499 0
-499 515 0
-515 -65 -530 0
530 -533 0
-41 483 0
-460 483 0
-42 -44 471 0
-471 483 0
-483 519 0
-496 519 0
-42 491 0
-39 -40 467 0
-467 484 0
-41 -42 469 0
-469 484 0
-42 -45 472 0
-472 484 0
-484 491 0
-44 493 0
-38 -43 474 0
-474 486 0
-41 -44 476 0
-476 486 0
-44 -45 478 0
-478 486 0
-486 493 0
-491 -493 507 0
-507 519 0
-519 -66 -531 0
531 -533 0
-45 487 0
-463 487 0
-471 487 0
-487 523 0
-499 523 0
-507 523 0
-523 -67 -532 0
532 -533 0
533 -550 0
-38 -37 -534 0
534 -537 0
-37 535 0
-38 535 0
-535 -39 -536 0
536 -537 0
-4 537 -538 0
538 -549 0
-41 -40 -539 0
539 -542 0
-40 540 0
-41 540 0
-540 -42 -541 0
541 -542 0
-5 542 -543 0
543 -549 0
-44 -43 -544 0
544 -547 0
-43 545 0
-44 545 0
-545 -45 -546 0
546 -547 0
-6 547 -548 0
548 -549 0
549 -550 0
550 -551 0
65 -576 0
-29 20 -553 0
553 -561 0
-30 21 -554 0
554 -561 0
-31 22 -555 0
555 -561 0
-32 23 -556 0
556 -561 0
-33 24 -557 0
557 -561 0
-34 25 -558 0
558 -561 0
-35 26 -559 0
559 -561 0
-36 27 -560 0
560 -561 0
561 -571 0
28 -570 0
-20 29 -562 0
562 -570 0
-21 30 -563 0
563 -570 0
-22 31 -564 0
564 -570 0
-23 32 -565 0
565 -570 0
-24 33 -566 0
566 -570 0
-25 34 -567 0
567 -570 0
-26 35 -568 0
568 -570 0
-27 36 -569 0
569 -570 0
570 -571 0
-28 -572 0
553 -572 0
554 -572 0
555 -572 0
556 -572 0
557 -572 0
558 -572 0
559 -572 0
560 -572 0
572 -574 0
562 -573 0
563 -573 0
564 -573 0
565 -573 0
566 -573 0
567 -573 0
568 -573 0
569 -573 0
573 -574 0
571 574 -575 0
575 -576 0
65 -577 0
89 -577 0
577 -587 0
554 -579 0
555 -579 0
556 -579 0
557 -579 0
558 -579 0
559 -579 0
560 -579 0
-28 19 -578 0
578 -579 0
579 -582 0
29 -581 0
563 -581 0
564 -581 0
565 -581 0
566 -581 0
567 -581 0
568 -581 0
569 -581 0
-19 28 -580 0
580 -581 0
581 -582 0
-29 -583 0
554 -583 0
555 -583 0
556 -583 0
557 -583 0
558 -583 0
559 -583 0
560 -583 0
578 -583 0
583 -585 0
563 -584 0
564 -584 0
565 -584 0
566 -584 0
567 -584 0
568 -584 0
569 -584 0
580 -584 0
584 -585 0
582 585 -586 0
586 -587 0
65 -588 0
90 -588 0
588 -596 0
553 -589 0
555 -589 0
556 -589 0
557 -589 0
558 -589 0
559 -589 0
560 -589 0
578 -589 0
589 -591 0
30 -590 0
562 -590 0
564 -590 0
565 -590 0
566 -590 0
567 -590 0
568 -590 0
569 -590 0
580 -590 0
590 -591 0
-30 -592 0
553 -592 0
555 -592 0
556 -592 0
557 -592 0
558 -592 0
559 -592 0
560 -592 0
578 -592 0
592 -594 0
562 -593 0
564 -593 0
565 -593 0
566 -593 0
567 -593 0
568 -593 0
569 -593 0
580 -593 0
593 -594 0
591 594 -595 0
595 -596 0
66 -597 0
88 -597 0
597 -605 0
553 -598 0
554 -598 0
556 -598 0
557 -598 0
558 -598 0
559 -598 0
560 -598 0
578 -598 0
598 -600 0
31 -599 0
562 -599 0
563 -599 0
565 -599 0
566 -599 0
567 -599 0
568 -599 0
569 -599 0
580 -599 0
599 -600 0
-31 -601 0
553 -601 0
554 -601 0
556 -601 0
557 -601 0
558 -601 0
559 -601 0
560 -601 0
578 -601 0
601 -603 0
562 -602 0
563 -602 0
565 -602 0
566 -602 0
567 -602 0
568 -602 0
569 -602 0
580 -602 0
602 -603 0
600 603 -604 0
604 -605 0
66 -613 0
553 -606 0
554 -606 0
555 -606 0
557 -606 0
558 -606 0
559 -606 0
560 -606 0
578 -606 0
606 -608 0
32 -607 0
562 -607 0
563 -607 0
564 -607 0
566 -607 0
567 -607 0
568 -607 0
569 -607 0
580 -607 0
607 -608 0
-32 -609 0
553 -609 0
554 -609 0
555 -609 0
557 -609 0
558 -609 0
559 -609 0
560 -609 0
578 -609 0
609 -611 0
562 -610 0
563 -610 0
564 -610 0
566 -610 0
567 -610 0
568 -610 0
569 -610 0
580 -610 0
610 -611 0
608 611 -612 0
612 -613 0
66 -614 0
90 -614 0
614 -622 0
553 -615 0
554 -615 0
555 -615 0
556 -615 0
558 -615 0
559 -615 0
560 -615 0
578 -615 0
615 -617 0
33 -616 0
562 -616 0
563 -616 0
564 -616 0
565 -616 0
567 -616 0
568 -616 0
569 -616 0
580 -616 0
616 -617 0
-33 -618 0
553 -618 0
554 -618 0
555 -618 0
556 -618 0
558 -618 0
559 -618 0
560 -618 0
578 -618 0
618 -620 0
562 -619 0
563 -619 0
564 -619 0
565 -619 0
567 -619 0
568 -619 0
569 -619 0
580 -619 0
619 -620 0
617 620 -621 0
621 -622 0
67 -623 0
88 -623 0
623 -631 0
553 -624 0
554 -624 0
555 -624 0
556 -624 0
557 -624 0
559 -624 0
560 -624 0
578 -624 0
624 -626 0
34 -625 0
562 -625 0
563 -625 0
564 -625 0
565 -625 0
566 -625 0
568 -625 0
569 -625 0
580 -625 0
625 -626 0
-34 -627 0
553 -627 0
554 -627 0
555 -627 0
556 -627 0
557 -627 0
559 -627 0
560 -627 0
578 -627 0
627 -629 0
562 -628 0
563 -628 0
564 -628 0
565 -628 0
566 -628 0
568 -628 0
569 -628 0
580 -628 0
628 -629 0
626 629 -630 0
630 -631 0
67 -632 0
89 -632 0
632 -640 0
553 -633 0
554 -633 0
555 -633 0
556 -633 0
557 -633 0
558 -633 0
560 -633 0
578 -633 0
633 -635 0
35 -634 0
562 -634 0
563 -634 0
564 -634 0
565 -634 0
566 -634 0
567 -634 0
569 -634 0
580 -634 0
634 -635 0
-35 -636 0
553 -636 0
554 -636 0
555 -636 0
556 -636 0
557 -636 0
558 -636 0
560 -636 0
578 -636 0
636 -638 0
562 -637 0
563 -637 0
564 -637 0
565 -637 0
566 -637 0
567 -637 0
569 -637 0
580 -637 0
637 -638 0
635 638 -639 0
639 -640 0
67 -648 0
553 -641 0
554 -641 0
555 -641 0
556 -641 0
557 -641 0
558 -641 0
559 -641 0
578 -641 0
641 -643 0
36 -642 0
562 -642 0
563 -642 0
564 -642 0
565 -642 0
566 -642 0
567 -642 0
568 -642 0
580 -642 0
642 -643 0
-36 -644 0
553 -644 0
554 -644 0
555 -644 0
556 -644 0
557 -644 0
558 -644 0
559 -644 0
578 -644 0
644 -646 0
562 -645 0
563 -645 0
564 -645 0
565 -645 0
566 -645 0
567 -645 0
568 -645 0
580 -645 0
645 -646 0
643 646 -647 0
647 -648 0
576 587 596 605 613 622 631 640 648 -649 0
649 -741 0
65 -673 0
-38 29 -650 0
650 -658 0
-39 30 -651 0
651 -658 0
-40 31 -652 0
652 -658 0
-41 32 -653 0
653 -658 0
-42 33 -654 0
654 -658 0
-43 34 -655 0
655 -658 0
-44 35 -656 0
656 -658 0
-45 36 -657 0
657 -658 0
658 -668 0
37 -667 0
-29 38 -659 0
659 -667 0
-30 39 -660 0
660 -667 0
-31 40 -661 0
661 -667 0
-32 41 -662 0
662 -667 0
-33 42 -663 0
663 -667 0
-34 43 -664 0
664 -667 0
-35 44 -665 0
665 -667 0
-36 45 -666 0
666 -667 0
667 -668 0
-37 -669 0
650 -669 0
651 -669 0
652 -669 0
653 -669 0
654 -669 0
655 -669 0
656 -669 0
657 -669 0
669 -671 0
659 -670 0
660 -670 0
661 -670 0
662 -670 0
663 -670 0
664 -670 0
665 -670 0
666 -670 0
670 -671 0
668 671 -672 0
672 -673 0
577 -683 0
651 -675 0
652 -675 0
653 -675 0
654 -675 0
655 -675 0
656 -675 0
657 -675 0
-37 28 -674 0
674 -675 0
675 -678 0
38 -677 0
660 -677 0
661 -677 0
662 -677 0
663 -677 0
664 -677 0
665 -677 0
666 -677 0
-28 37 -676 0
676 -677 0
677 -678 0
-38 -679 0
651 -679 0
652 -679 0
653 -679 0
654 -679 0
655 -679 0
656 -679 0
657 -679 0
674 -679 0
679 -681 0
660 -680 0
661 -680 0
662 -680 0
663 -680 0
664 -680 0
665 -680 0
666 -680 0
676 -680 0
680 -681 0
678 681 -682 0
682 -683 0
588 -691 0
650 -684 0
652 -684 0
653 -684 0
654 -684 0
655 -684 0
656 -684 0
657 -684 0
674 -684 0
684 -686 0
39 -685 0
659 -685 0
661 -685 0
662 -685 0
663 -685 0
664 -685 0
665 -685 0
666 -685 0
676 -685 0
685 -686 0
-39 -687 0
650 -687 0
652 -687 0
653 -687 0
654 -687 0
655 -687 0
656 -687 0
657 -687 0
674 -687 0
687 -689 0
659 -688 0
661 -688 0
662 -688 0
663 -688 0
664 -688 0
665 -688 0
666 -688 0
676 -688 0
688 -689 0
686 689 -690 0
690 -691 0
597 -699 0
650 -692 0
651 -692 0
653 -692 0
654 -692 0
655 -692 0
656 -692 0
657 -692 0
674 -692 0
692 -694 0
40 -693 0
659 -693 0
660 -693 0
662 -693 0
663 -693 0
664 -693 0
665 -693 0
666 -693 0
676 -693 0
693 -694 0
-40 -695 0
650 -695 0
651 -695 0
653 -695 0
654 -695 0
655 -695 0
656 -695 0
657 -695 0
674 -695 0
695 -697 0
659 -696 0
660 -696 0
662 -696 0
663 -696 0
664 -696 0
665 -696 0
666 -696 0
676 -696 0
696 -697 0
694 697 -698 0
698 -699 0
66 -707 0
650 -700 0
651 -700 0
652 -700 0
654 -700 0
655 -700 0
656 -700 0
657 -700 0
674 -700 0
700 -702 0
41 -701 0
659 -701 0
660 -701 0
661 -701 0
663 -701 0
664 -701 0
665 -701 0
666 -701 0
676 -701 0
701 -702 0
-41 -703 0
650 -703 0
651 -703 0
652 -703 0
654 -703 0
655 -703 0
656 -703 0
657 -703 0
674 -703 0
703 -705 0
659 -704 0
660 -704 0
661 -704 0
663 -704 0
664 -704 0
665 -704 0
666 -704 0
676 -704 0
704 -705 0
702 705 -706 0
706 -707 0
614 -715 0
650 -708 0
651 -708 0
652 -708 0
653 -708 0
655 -708 0
656 -708 0
657 -708 0
674 -708 0
708 -710 0
42 -709 0
659 -709 0
660 -709 0
661 -709 0
662 -709 0
664 -709 0
665 -709 0
666 -709 0
676 -709 0
709 -710 0
-42 -711 0
650 -711 0
651 -711 0
652 -711 0
653 -711 0
655 -711 0
656 -711 0
657 -711 0
674 -711 0
711 -713 0
659 -712 0
660 -712 0
661 -712 0
662 -712 0
664 -712 0
665 -712 0
666 -712 0
676 -712 0
712 -713 0
710 713 -714 0
714 -715 0
623 -723 0
650 -716 0
651 -716 0
652 -716 0
653 -716 0
654 -716 0
656 -716 0
657 -716 0
674 -716 0
716 -718 0
43 -717 0
659 -717 0
660 -717 0
661 -717 0
662 -717 0
663 -717 0
665 -717 0
666 -717 0
676 -717 0
717 -718 0
-43 -719 0
650 -719 0
651 -719 0
652 -719 0
653 -719 0
654 -719 0
656 -719 0
657 -719 0
674 -719 0
719 -721 0
659 -720 0
660 -720 0
661 -720 0
662 -720 0
663 -720 0
665 -720 0
666 -720 0
676 -720 0
720 -721 0
718 721 -722 0
722 -723 0
632 -731 0
650 -724 0
651 -724 0
652 -724 0
653 -724 0
654 -724 0
655 -724 0
657 -724 0
674 -724 0
724 -726 0
44 -725 0
659 -725 0
660 -725 0
661 -725 0
662 -725 0
663 -725 0
664 -725 0
666 -725 0
676 -725 0
725 -726 0
-44 -727 0
650 -727 0
651 -727 0
652 -727 0
653 -727 0
654 -727 0
655 -727 0
657 -727 0
674 -727 0
727 -729 0
659 -728 0
660 -728 0
661 -728 0
662 -728 0
663 -728 0
664 -728 0
666 -728 0
676 -728 0
728 -729 0
726 729 -730 0
730 -731 0
67 -739 0
650 -732 0
651 -732 0
652 -732 0
653 -732 0
654 -732 0
655 -732 0
656 -732 0
674 -732 0
732 -734 0
45 -733 0
659 -733 0
660 -733 0
661 -733 0
662 -733 0
663 -733 0
664 -733 0
665 -733 0
676 -733 0
733 -734 0
-45 -735 0
650 -735 0
651 -735 0
652 -735 0
653 -735 0
654 -735 0
655 -735 0
656 -735 0
674 -735 0
735 -737 0
659 -736 0
660 -736 0
661 -736 0
662 -736 0
663 -736 0
664 -736 0
665 -736 0
676 -736 0
736 -737 0
734 737 -738 0
738 -739 0
673 683 691 699 707 715 723 731 739 -740 0
740 -741 0
-990 0
-552 0
-71 0
-64 0
84 0
268 0
551 0
741 0
